
  21    0


   0  10 2 3 4 5 6 7 8 9 19 20 
   9   3 18 17 13 
  10   3 14 12 11 
   5   3 16 15 14 
  10   2 13 12 
  10   2 12 11 
   5   2 11 10 
   7   1 10 
   7   1 10 
   7   1 21
  10   1 21
   1   1 21
   5   1 21
   1   1 21
   4   1 21
   6   1 21
   7   1 21
   1   1 21
   5   1 21
   6   1 21
   0   0 
